D = 5;
T = 8;
N1 = 3;
N2 = 3;
N3 = 3;
MaxDT = 5;
MaxDL = 2;
MinDT = 3;

A = 1;
afines = [|false,false,true,false,true,false,false,false
          |false,false,true,true,true,true,true,false
          |true,true,false,false,false,false,false,true
          |false,true,false,false,true,false,true,false
          |true,true,false,true,false,false,false,true
          |false,true,false,false,false,false,true,true
          |false,true,false,true,false,true,false,false
          |false,false,true,false,true,true,false,false|];

R = {1,4,7};
TrabRot = [true, false, false, false, true, false, false, false];
TrabDob = [true, false, false, false, true, false, false, false];

DiasInd = [|true, false, false, false, true
           |true, false, false, false, true
           |true, false, false, false, true
           |true, false, false, false, true
           |true, false, false, false, true
           |true, false, false, false, true
           |true, false, false, false, true
           |true, false, false, false, true|];

TurnosInd = [|true, false, false
           |true, false, false
           |true, false, false
           |true, false, false
           |true, false, false
           |true, false, false
           |true, false, false
           |true, false, false|];